1 -1 -2 0
1 -1 3 0
1 4 -3 0
1 5 -6 0
1 5 -2 0
1 -5 7 0
1 5 -8 0
1 -5 -9 0
1 10 -6 0
1 10 2 0
1 10 3 0
1 -10 7 0
1 3 11 0
1 3 12 0
1 -3 -10 0
1 -3 13 0
1 -3 -14 0
1 3 1 0
1 3 -9 0
1 -9 -15 0
1 9 -11 0
1 -9 -10 0
1 9 1 0
1 2 -16 0
1 2 10 0
1 -2 4 0
1 -2 -17 0
1 2 18 0
1 2 -19 0
1 2 -1 0
1 2 8 0
1 -8 -20 0
1 -8 10 0
1 8 19 0
1 8 -5 0
1 -8 21 0
1 14 22 0
1 -14 -3 0
1 -14 23 0
1 -14 7 0
1 12 -22 0
1 -12 16 0
1 -12 -7 0
1 -12 9 0
1 -24 -25 0
1 -24 -3 0
1 24 -26 0
1 11 20 0
1 7 -27 0
1 7 -28 0
1 7 -29 0
1 -7 -24 0
1 -7 -14 0
1 7 30 0
1 -6 -31 0
1 6 -28 0
1 6 29 0
1 -6 5 0
1 23 22 0
1 -23 32 0
1 23 -18 0
1 23 24 0
1 -22 -33 0
1 -22 11 0
1 22 -12 0
1 22 -23 0
1 -34 -7 0
1 -27 15 0
1 -27 -34 0
1 27 35 0
1 29 6 0
1 -29 36 0
1 -29 -7 0
1 31 -33 0
1 -31 -36 0
1 -31 -29 0
1 -31 7 0
1 37 -31 0
1 37 11 0
1 -37 34 0
1 37 24 0
1 -25 31 0
1 25 27 0
1 -35 31 0
1 35 -27 0
1 -35 -36 0
1 -35 -28 0
1 35 -29 0
1 -35 24 0
1 36 -31 0
1 -36 -38 0
1 36 -24 0
1 36 39 0
1 -19 16 0
1 16 40 0
1 16 41 0
1 16 19 0
1 -26 -42 0
1 26 43 0
1 26 44 0
1 20 -11 0
1 -20 -45 0
1 20 42 0
1 40 -16 0
1 40 19 0
1 41 -33 0
1 41 -20 0
1 41 18 0
1 -41 26 0
1 -46 20 0
1 46 -16 0
1 -46 26 0
1 46 -19 0
1 43 -26 0
1 -43 19 0
1 -18 -22 0
1 18 -42 0
1 -18 -41 0
1 18 -47 0
1 -15 2 0
1 -15 -3 0
1 -15 -23 0
1 -15 41 0
1 -15 -44 0
1 15 -47 0
1 32 -22 0
1 32 23 0
1 32 41 0
1 33 -22 0
1 33 40 0
1 -33 42 0
1 33 -13 0
1 33 32 0
1 33 -44 0
1 -42 -33 0
1 -42 -15 0
1 -42 -32 0
1 42 26 0
1 -42 -39 0
1 42 30 0
1 47 -33 0
1 47 -15 0
1 47 20 0
1 47 -38 0
1 47 32 0
1 -47 -18 0
1 45 33 0
1 45 -15 0
1 -45 20 0
1 -45 -26 0
1 -44 33 0
1 -44 32 0
1 28 -36 0
1 -28 -17 0
1 28 -23 0
1 -28 13 0
1 -28 35 0
1 28 -47 0
1 -28 30 0
1 30 22 0
1 -30 -36 0
1 30 42 0
1 -30 -47 0
1 -38 48 0
1 38 -13 0
1 38 35 0
1 38 47 0
1 38 21 0
1 39 36 0
1 39 42 0
1 39 38 0
1 -39 -13 0
1 39 -21 0
1 -13 48 0
1 13 28 0
1 -13 -3 0
1 13 -39 0
1 13 30 0
1 48 28 0
1 -48 30 0
1 -17 -33 0
1 17 -2 0
1 -21 -17 0
1 21 -28 0
1 21 -32 0
1 21 -8 0
1 21 39 0
1 -21 30 0
